************************************************************************
file with basedata            : cm233_.bas
initial value random generator: 356908871
************************************************************************
projects                      :  1
jobs (incl. supersource/sink ):  18
horizon                       :  124
RESOURCES
  - renewable                 :  2   R
  - nonrenewable              :  2   N
  - doubly constrained        :  0   D
************************************************************************
PROJECT INFORMATION:
pronr.  #jobs rel.date duedate tardcost  MPM-Time
    1     16      0       39        7       39
************************************************************************
PRECEDENCE RELATIONS:
jobnr.    #modes  #successors   successors
   1        1          3           2   3   4
   2        2          3           7   8  13
   3        2          2           6   9
   4        2          3           5   7  12
   5        2          3           6   8   9
   6        2          2          11  13
   7        2          1          11
   8        2          2          14  15
   9        2          2          10  13
  10        2          1          11
  11        2          2          14  17
  12        2          3          15  16  17
  13        2          2          15  17
  14        2          1          16
  15        2          1          18
  16        2          1          18
  17        2          1          18
  18        1          0        
************************************************************************
REQUESTS/DURATIONS:
jobnr. mode duration  R 1  R 2  N 1  N 2
------------------------------------------------------------------------
  1      1     0       0    0    0    0
  2      1     3       7    0    8    9
         2     7       6    0    6    2
  3      1     6       5    0    9   10
         2    10       5    0    8    9
  4      1     9       2    0    1    5
         2    10       0    6    1    5
  5      1    10       2    0    8    6
         2    10       0    7    4    6
  6      1     6       0   10    5    9
         2     9       0    9    5    3
  7      1     7       9    0    7    7
         2     9       0    9    5    7
  8      1     2       0    6    3    5
         2     4       0    2    1    5
  9      1     5      10    0    7    6
         2     8       5    0    6    6
 10      1     7       5    0    8    2
         2     9       0    6    8    1
 11      1     1       0    6    5    7
         2     4       4    0    1    7
 12      1     4       0    6    5    5
         2     6       7    0    3    3
 13      1     4       8    0    8    8
         2     8       0    5    6    7
 14      1     6       0   10    4    8
         2    10       0    9    3    6
 15      1     2       0    8    8    7
         2     5       0    6    7    7
 16      1     1       0   10    7    8
         2     8       0    8    4    6
 17      1     1       8    0    6    2
         2     7       6    0    6    2
 18      1     0       0    0    0    0
************************************************************************
RESOURCEAVAILABILITIES:
  R 1  R 2  N 1  N 2
    9   12   80   88
************************************************************************
